NAME : R105.1377110.tour
COMMENT : Cost = 0_1377110
COMMENT : Found by LKH [Keld Helsgaun] Wed Sep 13 19:17:44 2017
TYPE : TOUR
DIMENSION : 114
TOUR_SECTION
1
29
13
30
80
4
51
69
25
81
112
43
15
45
39
87
38
98
14
114
28
70
77
41
54
27
102
48
37
20
50
47
49
105
73
40
24
68
56
55
5
26
110
46
84
83
9
19
104
60
6
62
17
86
85
18
61
90
108
96
93
99
100
95
7
97
113
3
16
58
88
44
101
92
94
107
64
65
12
91
11
33
71
109
53
63
89
8
106
32
31
52
82
79
35
36
78
103
34
66
72
10
67
21
2
111
22
74
76
23
42
57
75
59
-1
EOF
